1 6 10 11 9 8 13 14 35 36 42 43 48 47 46 50 49 45 44 40 39 41 37 38 29 23 22 18 17 21 24 28 34 27 25 20 32 33 31 30 26 19 16 15 12 53 7 4 3 103 102 93 86 85 84 83 81 76 73 51 82 75 74 68 64 63 60 59 55 54 56 65 72 77 80 79 78 71 69 70 61 62 58 57 66 67 87 88 91 92 90 89 52 98 101 5 2 104 100 97 94 95 96 99 105
